c Random generated cnf formula, satisfiable: true
p cnf 10 50
5 -8 6 0
-4 3 -2 0
-9 -7 8 0
-8 -9 -5 0
-8 -1 -6 0
-7 -3 -2 0
5 -2 4 0
3 -4 -5 0
5 8 10 0
-2 1 -6 0
-7 5 -8 0
-5 7 2 0
-8 2 10 0
2 7 8 0
4 5 6 0
2 -7 5 0
2 9 1 0
6 -1 -4 0
2 10 -6 0
-9 4 -1 0
-10 -6 -9 0
-6 -3 -4 0
-2 9 4 0
-3 10 7 0
-9 7 6 0
-8 -6 2 0
-10 -2 -1 0
4 5 -7 0
-8 -4 2 0
-2 -1 5 0
-7 10 5 0
-5 -2 -3 0
3 6 10 0
-3 -2 5 0
2 1 -6 0
-4 3 6 0
-7 -5 10 0
-5 -6 8 0
9 6 8 0
2 -4 8 0
-7 -1 5 0
-3 8 5 0
8 5 -9 0
9 8 -1 0
-8 1 10 0
-6 4 5 0
-4 9 -2 0
10 3 -1 0
9 8 3 0
3 8 -5 0
